7440
8243
9336
6883
8977
10028
1193
4334
5552
5119
9377
2440
2957
6235
4462
1025
4646
6520
3056
4861
9965
7635
7940
2989
9529
9969
1545
6702
4835
6950
2342
9891
2826
3093
3916
4618
7572
5127
4952
1386
7309
1793
7241
1582
1522
7476
937
5839
4181
9847
